Instance Name : rc206
Date : 2022-07-18
Solution
Route 1 : 92 95 63 33 28 27 29 31 30 62 67 71 41 38 40 44 61 81 94 85 84 66 56 50 34 32 26 89 20 24 48 25 77 58 74
Route 2 : 72 36 39 42 5 45 2 88 82 65 83 64 51 76 18 21 23 19 49 22 57 86 87 97 9 13 10 17 60 55 100 70 68
Route 3 : 69 98 12 14 47 16 15 11 59 75 52 99 90 53 78 73 79 7 6 8 46 4 3 1 43 35 37 54 96 93 91 80
